<?xml version = "1.0" encoding="UTF-8" standalone="yes"?>
<CPLEXSolution version="1.2">
 <header
   problemName="cluster_small"
   solutionName="incumbent"
   solutionIndex="-1"
   objectiveValue="0"
   solutionTypeValue="3"
   solutionTypeString="primal"
   solutionStatusValue="101"
   solutionStatusString="integer optimal solution"
   solutionMethodString="mip"
   primalFeasible="1"
   dualFeasible="1"
   MIPNodes="0"
   MIPIterations="0"
   writeLevel="1"/>
 <quality
   epInt="1.0000000000000001e-05"
   epRHS="9.9999999999999995e-07"
   maxIntInfeas="0"
   maxPrimalInfeas="0"
   maxX="0"
   maxSlack="220"/>
 <linearConstraints>
  <constraint name="c0" index="0" slack="86"/>
  <constraint name="c1" index="1" slack="220"/>
  <constraint name="c2" index="2" slack="1"/>
  <constraint name="c3" index="3" slack="108"/>
 </linearConstraints>
 <variables>
  <variable name="x0" index="0" value="0"/>
  <variable name="x1" index="1" value="0"/>
  <variable name="x2" index="2" value="0"/>
 </variables>
 <objectiveValues>
  <objective index="0" name="" value="0"/>
 </objectiveValues>
</CPLEXSolution>
